
Gurobi 9.0.2 (win64) logging started Sun Dec 27 06:44:27 2020

Changed value of parameter logfile to result\SunCable-20201227T0415\scenario_2030_p10_cab5000.log
   Prev:   Default: 
Gurobi Optimizer version 9.0.2 build v9.0.2rc0 (win64)
Optimize a model with 1243974 rows, 762167 columns and 3491691 nonzeros
Model fingerprint: 0xce96ccd9
Coefficient statistics:
  Matrix range     [1e-07, 5e+05]
  Objective range  [1e+00, 1e+00]
  Bounds range     [0e+00, 0e+00]
  RHS range        [2e-05, 3e+08]
Warning: Model contains large matrix coefficient range
         Consider reformulating model or setting NumericFocus parameter
         to avoid numerical issues.

Concurrent LP optimizer: primal simplex, dual simplex, and barrier
Showing barrier log only...

Presolve removed 1068997 rows and 595935 columns
Presolve time: 2.68s
Presolved: 174977 rows, 280098 columns, 652320 nonzeros

Ordering time: 0.08s

Barrier statistics:
 Dense cols : 5
 AA' NZ     : 6.422e+05
 Factor NZ  : 3.150e+06 (roughly 200 MBytes of memory)
 Factor Ops : 7.040e+07 (less than 1 second per iteration)
 Threads    : 30

                  Objective                Residual
Iter       Primal          Dual         Primal    Dual     Compl     Time
   0  -2.63270668e+16 -1.07293920e+15  7.68e+06 2.51e+04  3.16e+12     3s
   1  -5.54969207e+15 -1.08627018e+15  1.61e+06 4.57e+06  8.74e+11     3s
   2  -1.81290343e+15 -1.02574298e+15  5.29e+05 8.03e+05  2.51e+11     4s
   3  -3.45921513e+14 -9.00134182e+14  1.02e+05 1.27e+05  4.92e+10     4s
   4  -7.84381990e+13 -5.61656663e+14  2.23e+04 3.49e+04  1.19e+10     4s
   5  -2.45364280e+13 -3.72018416e+14  7.14e+03 1.68e+04  4.50e+09     4s
   6  -7.22074778e+12 -2.90804833e+14  2.31e+03 1.07e+04  2.13e+09     5s
   7  -2.44988897e+12 -1.09036173e+14  9.25e+02 1.06e+03  5.01e+08     5s
   8   5.60316741e+11 -2.90274646e+13  2.29e+01 5.91e+01  5.97e+07     5s
   9   3.59301968e+11 -1.51668136e+12  3.62e+00 1.51e+00  3.61e+06     5s
  10   1.15346678e+11 -5.69117595e+11  6.84e-01 1.48e-01  1.25e+06     6s
  11   4.34253643e+10 -2.69109936e+11  1.86e-01 7.29e-09  5.60e+05     6s
  12   2.26741812e+10 -4.22624416e+10  7.73e-02 7.45e-09  1.17e+05     6s
  13   1.23118311e+10 -3.70964719e+09  1.69e-02 9.31e-09  2.86e+04     6s
  14   9.57504440e+09  1.61768648e+09  6.64e-03 7.45e-09  1.42e+04     7s
  15   8.71166661e+09  4.17423694e+09  3.35e-03 5.59e-09  8.06e+03     7s
  16   8.30378902e+09  5.51992108e+09  1.63e-03 3.73e-09  4.93e+03     7s
  17   8.12173979e+09  6.45480101e+09  8.53e-04 3.73e-09  2.95e+03     7s
  18   8.03552373e+09  7.25144448e+09  4.98e-04 2.79e-09  1.39e+03     8s
  19   7.99743343e+09  7.38726691e+09  3.63e-04 2.79e-09  1.08e+03     8s
  20   7.96912286e+09  7.56768772e+09  2.57e-04 1.86e-09  7.09e+02     8s
  21   7.94269709e+09  7.66378223e+09  1.71e-04 1.86e-09  4.93e+02     8s
  22   7.91626753e+09  7.71197998e+09  7.53e-05 2.79e-09  3.60e+02     9s
  23   7.90692729e+09  7.74670809e+09  4.45e-05 1.86e-09  2.82e+02     9s
  24   7.89848594e+09  7.80488681e+09  1.81e-05 1.86e-09  1.65e+02     9s
  25   7.89432792e+09  7.83197790e+09  7.29e-06 1.86e-09  1.10e+02     9s
  26   7.89360690e+09  7.84389391e+09  5.46e-06 1.86e-09  8.75e+01    10s
  27   7.89315540e+09  7.85793922e+09  4.35e-06 1.86e-09  6.20e+01    10s
  28   7.89280835e+09  7.86169313e+09  3.52e-06 1.86e-09  5.48e+01    10s
  29   7.89206060e+09  7.86811310e+09  1.84e-06 1.86e-09  4.21e+01    10s
  30   7.89159422e+09  7.87344493e+09  8.18e-07 1.86e-09  3.19e+01    11s
  31   7.89138818e+09  7.88037964e+09  3.73e-07 1.86e-09  1.94e+01    11s
  32   7.89126653e+09  7.88809357e+09  2.15e-07 2.79e-09  5.58e+00    11s
  33   7.89118570e+09  7.89049871e+09  2.83e-07 2.79e-09  1.21e+00    12s
  34   7.89110039e+09  7.89087293e+09  8.46e-08 1.86e-09  4.00e-01    12s
  35   7.89109573e+09  7.89104831e+09  1.72e-07 1.86e-09  8.34e-02    12s
  36   7.89109020e+09  7.89108934e+09  1.21e-07 2.79e-09  1.51e-03    12s
  37   7.89109006e+09  7.89108963e+09  3.17e-04 8.55e-09  7.55e-04    12s
  38   7.89109005e+09  7.89108976e+09  2.48e-04 2.79e-09  5.10e-04    13s

Barrier solved model in 38 iterations and 12.68 seconds
Optimal objective 7.89109005e+09

Crossover log...

   16147 DPushes remaining with DInf 0.0000000e+00                13s
       0 DPushes remaining with DInf 0.0000000e+00                15s

  124651 PPushes remaining with PInf 1.6146677e-03                15s
   64196 PPushes remaining with PInf 6.2135192e-02                22s
       0 PPushes remaining with PInf 0.0000000e+00                23s

  Push phase complete: Pinf 0.0000000e+00, Dinf 4.4378594e+04     23s

Iteration    Objective       Primal Inf.    Dual Inf.      Time
  140799    7.8910900e+09   0.000000e+00   4.437859e+04     23s
  141493    7.8910900e+09   0.000000e+00   0.000000e+00     26s

Solved with barrier
Solved in 141493 iterations and 26.24 seconds
Optimal objective  7.891090008e+09
Warning: unscaled primal violation = 0.000871062 and residual = 0.000871062
